study/exp-portion-fine-grain-4v100/run-logs-backup-12-06/samgraph_cache_graphsage_kKHop2_papers100M-undir_coll_cache_asymm_link_2_cache_rate_016_batch_size_8000_concurrent_impl_MPS.log
config:eval_tsp="2022-12-05 18:34:07"
config:arch=arch5
config:num_train_worker=3
config:num_sample_worker=1
config:sample_type=khop2
config:root_path=/nvme/graph-learning-copy/samgraph/
config:dataset=papers100M-undir
config:pipeline=False
config:cache_policy=coll_cache_asymm_link
config:cache_percentage=0.16
config:num_epoch=4
config:batch_size=8000
config:num_hidden=256
config:max_sampling_jobs=1
config:max_copying_jobs=1
config:barriered_epoch=1
config:presample_epoch=2
config:omp_thread_num=13
config:unsupervised=False
config:amp=True
config:rolling=0
config:fanout=[25, 10]
config:lr=0.003
config:dropout=0.5
config:single_gpu=False
config:max_num_step=100000
config:validate_configs=False
config:report_acc=0
config:dataset_path=/nvme/graph-learning-copy/samgraph/papers100M-undir
config:torch_thread_num=13
config:train_workers=['cuda:0', 'cuda:1', 'cuda:2']
config:sample_workers=['cuda:3']
config:num_fanout=2
config:num_layer=2
config:_run_mode=RunMode.FGNN
config:_log_level=warn
config:_profile_level=3
config:_empty_feat=0
config:_arch=5
config:_sample_type=5
config:_cache_policy=13
test_result:init:input_scale_factor=1.1
0 :  {link #0 : 1}, {link #1 : 2},
1 :  {link #0 : 2}, {link #1 : 0},
2 :  {link #0 : 0}, {link #1 : 1},
0 :  {link #0 : 1}, {link #1 : 2},
1 :  {link #0 : 2}, {link #1 : 0},
2 :  {link #0 : 0}, {link #1 : 1},
0 :  {link #0 : 1}, {link #1 : 2},
1 :  {link #0 : 2}, {link #1 : 0},
2 :  {link #0 : 0}, {link #1 : 1},
Set parameter WLSAccessID
Set parameter WLSSecret
Set parameter LicenseID
Set parameter TimeLimit to value 200
Set parameter MIPGap to value 0.05
Set parameter GomoryPasses to value 0
Set parameter Aggregate to value 0
Set parameter LogFile to value "cppsolver.log"
Set parameter Threads to value 26
Academic license - for non-commercial use only - registered to xiaoniu.sxn@sjtu.edu.cn
Gurobi Optimizer version 9.5.1 build v9.5.1rc2 (linux64)
Thread count: 40 physical cores, 80 logical processors, using up to 26 threads
Academic license - for non-commercial use only - registered to xiaoniu.sxn@sjtu.edu.cn
Optimize a model with 21372 rows, 10174 columns and 64086 nonzeros
Model fingerprint: 0x6349509e
Variable types: 4 continuous, 10170 integer (10170 binary)
Coefficient statistics:
  Matrix range     [2e-04, 4e+02]
  Objective range  [1e+00, 1e+00]
  Bounds range     [1e+00, 1e+00]
  RHS range        [1e+00, 2e+02]
Found heuristic solution: objective 2.000000e+09
Presolve removed 12206 rows and 0 columns
Presolve time: 0.09s
Presolved: 9166 rows, 10174 columns, 37642 nonzeros
Found heuristic solution: objective 6962.4811022
Variable types: 4 continuous, 10170 integer (10170 binary)

Root relaxation: objective 2.987742e+02, 4173 iterations, 0.18 seconds (0.17 work units)

    Nodes    |    Current Node    |     Objective Bounds      |     Work
 Expl Unexpl |  Obj  Depth IntInf | Incumbent    BestBd   Gap | It/Node Time

     0     0  298.77418    0   12 6962.48110  298.77418  95.7%     -    0s
H    0     0                     299.4619743  298.77418  0.23%     -    0s

Explored 1 nodes (12273 simplex iterations) in 0.51 seconds (0.45 work units)
Thread count was 26 (of 80 available processors)

Solution count 3: 299.462 6962.48 2e+09 

Optimal solution found (tolerance 5.00e-02)
Best objective 2.994619743478e+02, best bound 2.987741800312e+02, gap 0.2297%
coll_cache:optimal_local_rate=0.984664,0.984664,0.984664,
coll_cache:optimal_remote_rate=0.00232867,0.00232867,0.00232867,
coll_cache:optimal_cpu_rate=0.0130072,0.0130072,0.0130072,
z=299.462
test_result:init:feat_nbytes=56862697472
test_result:init:cache_nbytes=9088078848
test_result:init:feat_nbytes=56862697472
test_result:init:cache_nbytes=9088078848
test_result:init:feat_nbytes=56862697472
test_result:init:cache_nbytes=9088078848
0 :  {link #0 : 1}, {link #1 : 2},
1 :  {link #0 : 2}, {link #1 : 0},
2 :  {link #0 : 0}, {link #1 : 1},
0 :  {link #0 : 1}, {link #1 : 2},
1 :  {link #0 : 2}, {link #1 : 0},
2 :  {link #0 : 0}, {link #1 : 1},
0 :  {link #0 : 1}, {link #1 : 2},
1 :  {link #0 : 2}, {link #1 : 0},
2 :  {link #0 : 0}, {link #1 : 1},
Set parameter WLSAccessID
Set parameter WLSSecret
Set parameter LicenseID
Set parameter TimeLimit to value 200
Set parameter MIPGap to value 0.05
Set parameter GomoryPasses to value 0
Set parameter Aggregate to value 0
Set parameter LogFile to value "cppsolver.log"
Set parameter Threads to value 26
Academic license - for non-commercial use only - registered to xiaoniu.sxn@sjtu.edu.cn
Gurobi Optimizer version 9.5.1 build v9.5.1rc2 (linux64)
Thread count: 40 physical cores, 80 logical processors, using up to 26 threads
Academic license - for non-commercial use only - registered to xiaoniu.sxn@sjtu.edu.cn
Optimize a model with 21372 rows, 10174 columns and 64086 nonzeros
Model fingerprint: 0x02c68020
Variable types: 4 continuous, 10170 integer (10170 binary)
Coefficient statistics:
  Matrix range     [2e-04, 4e+02]
  Objective range  [1e+00, 1e+00]
  Bounds range     [1e+00, 1e+00]
  RHS range        [1e+00, 2e+02]
Found heuristic solution: objective 2.000000e+09
Presolve removed 12206 rows and 0 columns
Presolve time: 0.08s
Presolved: 9166 rows, 10174 columns, 37642 nonzeros
Found heuristic solution: objective 7577.4386732
Variable types: 4 continuous, 10170 integer (10170 binary)

Root relaxation: objective 2.987742e+02, 4812 iterations, 0.17 seconds (0.17 work units)

    Nodes    |    Current Node    |     Objective Bounds      |     Work
 Expl Unexpl |  Obj  Depth IntInf | Incumbent    BestBd   Gap | It/Node Time

     0     0  298.77418    0   20 7577.43867  298.77418  96.1%     -    0s
H    0     0                     299.4697440  298.77418  0.23%     -    0s

Explored 1 nodes (8590 simplex iterations) in 0.39 seconds (0.36 work units)
Thread count was 26 (of 80 available processors)

Solution count 3: 299.47 7577.44 2e+09 

Optimal solution found (tolerance 5.00e-02)
Best objective 2.994697440249e+02, best bound 2.987741800312e+02, gap 0.2323%
coll_cache:optimal_local_rate=0.984664,0.984664,0.98469,
coll_cache:optimal_remote_rate=0.00235452,0.00235452,0.00232867,
coll_cache:optimal_cpu_rate=0.0129813,0.0129813,0.0129813,
z=299.47
test_result:init:cache_nbytes=0
test_result:init:cache_nbytes=0
test_result:init:cache_nbytes=0
[Train  Worker 0/3] Started with PID 145124(Tesla V100-SXM2-16GB)
[Train  Worker 0] run train for 4 epochs with 153 steps
Epoch 00000 | Epoch Time 1.7921 | Total Train Time(Profiler) 1.5210 | Copy Time 0.2654
Epoch 00001 | Epoch Time 0.6851 | Total Train Time(Profiler) 0.4302 | Copy Time 0.2502
Epoch 00002 | Epoch Time 0.6885 | Total Train Time(Profiler) 0.4319 | Copy Time 0.2516
Epoch 00003 | Epoch Time 0.6860 | Total Train Time(Profiler) 0.4297 | Copy Time 0.2509
[Train  Worker 0] Avg Epoch Time 0.6865 | Train Total Time(Profiler) 0.4306 | Copy Time 0.2509
[Train  Worker 2/3] Started with PID 145127(Tesla V100-SXM2-16GB)
[Train  Worker 2] run train for 4 epochs with 153 steps
[Train  Worker 2] Avg Epoch Time 0.6865 | Train Total Time(Profiler) 0.4307 | Copy Time 0.2510
[Train  Worker 1/3] Started with PID 145126(Tesla V100-SXM2-16GB)
[Train  Worker 1] run train for 4 epochs with 153 steps
[Train  Worker 1] Avg Epoch Time 0.6864 | Train Total Time(Profiler) 0.4299 | Copy Time 0.2514
    [Step(average) Profiler Level 1 E3 S152]
        L1  sample           0.005584 | send           0.001402
        L1  recv             0.000000 | copy           0.000000 | convert time 0.000000 | train  0.000000
        L1  feature nbytes 0.00 Bytes | label nbytes 0.00 Bytes
        L1  id nbytes      0.00 Bytes | graph nbytes 0.00 Bytes
        L1  miss nbytes    0.00 Bytes | remote nbytes 0.00 Bytes
        L1  num nodes         1100879 | num samples     1712956
    [Step(average) Profiler Level 2 E3 S152]
        L2  shuffle     0.000279 | core sample  0.002036 | id remap        0.003171
        L2  graph copy  0.000000 | id copy      0.000000 | cache feat copy 0.000000
        L2  last layer sample time 0.000313 | size 72447.827887
    [Step(average) Profiler Level 3 E3 S152]
        L3  khop sample coo  0.001725 | khop sort coo      0.000000 | khop count edge     0.000037 | khop compact edge 0.000237
        L3  walk sample coo  0.000000 | walk topk total    0.000000 | walk topk step1     0.000000 | walk topk step2   0.000000
        L3  walk topk step3  0.000000 | walk topk step4    0.000000 | walk topk step5     0.000000
        L3  walk topk step6  0.000000 | walk topk step7    0.000000
        L3  remap unique     0.000000 | remap populate     0.002639 | remap mapnode       0.000000 | remap mapedge     0.000532
        L3  cache get_index  0.000000 | cache copy_index   0.000000 | cache extract_miss  0.000000
        L3  cache copy_miss  0.000000 | cache combine_miss 0.000000 | cache combine cache 0.000000 | cache combine remote 0.000000
        L3  label extract  0.000000
    [Init Profiler Level 1]
        L1  init     5.3090 | sampler init    12.0745 | trainer init 0.0000
    [Init Profiler Level 2]
        L2  load ds         8.1686 | init queue           3.5747
        L2  presample       3.8668 | build interal ds     1.7704
        L2  build cache     0.0000
    [Init Profiler Level 3]
        L3  load dataset: mmap     5.3050 | copy         2.8636
        L3  dist queue: alloc      0.0017 | pin          3.5730 | push     0.0000
        L3  presample: init        0.2942
        L3  presample: sample      1.6976 | copy         0.1068
        L3  presample: count       1.1350 | sort         0.2639
        L3  presample: reset       0.0007 | get rank     0.0344
        L3  internal: cuda ctx     1.5306 | cuda stream     0.2353
[Sample Worker 0/1] Started with PID 145123(Tesla V100-SXM2-16GB)
[Sample Worker 0] run sample for 4 epochs with 153 steps
[Sample Worker 0] Avg Sample Total Time 1.0704 | Sampler Total Time(Profiler) 1.0689
test_result:sample_time=0.8544
test_result:get_cache_miss_index_time=0.0000
test_result:enqueue_samples_time=0.2146
test_result:epoch_time:sample_total=1.0704
[CUDA] cuda0: usage: 14.43 GB
[SAM] cuda0 data alloc        : 0.00 Bytes
[SAM] cuda0 workspace         : 1.23 GB
[SAM] cuda0 workspace reserve : 620.68 MB
[SAM] cuda0 total             : 1.23 GB
    [Step(average) Profiler Level 1 E3 S152]
        L1  sample           0.000000 | send           0.000000
        L1  recv             0.001558 | copy           0.004924 | convert time 0.000405 | train  0.008034
        L1  feature nbytes  537.54 MB | label nbytes   62.50 KB
        L1  id nbytes      0.00 Bytes | graph nbytes 0.00 Bytes
        L1  miss nbytes      14.28 MB | remote nbytes    1.12 MB
        L1  num nodes               0 | num samples           0
    [Step(average) Profiler Level 2 E3 S152]
        L2  shuffle     0.000000 | core sample  0.000000 | id remap        0.000000
        L2  graph copy  0.000003 | id copy      0.000000 | cache feat copy 0.003362
        L2  last layer sample time 0.000000 | size 0.000000
    [Step(average) Profiler Level 3 E3 S152]
        L3  khop sample coo  0.000000 | khop sort coo      0.000000 | khop count edge     0.000000 | khop compact edge 0.000000
        L3  walk sample coo  0.000000 | walk topk total    0.000000 | walk topk step1     0.000000 | walk topk step2   0.000000
        L3  walk topk step3  0.000000 | walk topk step4    0.000000 | walk topk step5     0.000000
        L3  walk topk step6  0.000000 | walk topk step7    0.000000
        L3  remap unique     0.000000 | remap populate     0.000000 | remap mapnode       0.000000 | remap mapedge     0.000000
        L3  cache get_index  0.000706 | cache copy_index   0.000000 | cache extract_miss  0.000000
        L3  cache copy_miss  0.000000 | cache combine_miss 0.001981 | cache combine cache 0.002438 | cache combine remote 0.000034
        L3  label extract  0.000174
    [Init Profiler Level 1]
        L1  init     5.3090 | sampler init     0.0000 | trainer init 58.0316
    [Init Profiler Level 2]
        L2  load ds         5.3050 | init queue           3.5722
        L2  presample       0.0000 | build interal ds     1.4392
        L2  build cache    53.0172
    [Init Profiler Level 3]
        L3  load dataset: mmap     5.3050 | copy         0.0000
        L3  dist queue: alloc      0.0017 | pin          3.5705 | push     0.0000
        L3  presample: init        0.0000
        L3  presample: sample      0.0000 | copy         0.0000
        L3  presample: count       0.0000 | sort         0.0000
        L3  presample: reset       0.0000 | get rank     0.0000
        L3  internal: cuda ctx     1.4392 | cuda stream     0.0000
|===========================================================================|
|                  PyTorch CUDA memory summary, device ID 0                 |
|---------------------------------------------------------------------------|
|            CUDA OOMs: 0            |        cudaMalloc retries: 0         |
|===========================================================================|
|        Metric         | Cur Usage  | Peak Usage | Tot Alloc  | Tot Freed  |
|---------------------------------------------------------------------------|
| Allocated memory      |   22845 KB |  402715 KB |  284882 MB |  284860 MB |
|       from large pool |   18173 KB |  399332 KB |  282769 MB |  282752 MB |
|       from small pool |    4672 KB |    7135 KB |    2112 MB |    2108 MB |
|---------------------------------------------------------------------------|
| Active memory         |   22845 KB |  402715 KB |  284882 MB |  284860 MB |
|       from large pool |   18173 KB |  399332 KB |  282769 MB |  282752 MB |
|       from small pool |    4672 KB |    7135 KB |    2112 MB |    2108 MB |
|---------------------------------------------------------------------------|
| GPU reserved memory   |  577536 KB |  577536 KB |  577536 KB |       0 B  |
|       from large pool |  569344 KB |  569344 KB |  569344 KB |       0 B  |
|       from small pool |    8192 KB |    8192 KB |    8192 KB |       0 B  |
|---------------------------------------------------------------------------|
| Non-releasable memory |   24258 KB |  368921 KB |  343074 MB |  343051 MB |
|       from large pool |   22787 KB |  367098 KB |  340665 MB |  340643 MB |
|       from small pool |    1471 KB |    3613 KB |    2409 MB |    2407 MB |
|---------------------------------------------------------------------------|
| Allocations           |      38    |      51    |   22680    |   22642    |
|       from large pool |       3    |      14    |    8976    |    8973    |
|       from small pool |      35    |      39    |   13704    |   13669    |
|---------------------------------------------------------------------------|
| Active allocs         |      39    |      51    |   22680    |   22641    |
|       from large pool |       3    |      14    |    8976    |    8973    |
|       from small pool |      36    |      39    |   13704    |   13668    |
|---------------------------------------------------------------------------|
| GPU reserved segments |      13    |      13    |      13    |       0    |
|       from large pool |       9    |       9    |       9    |       0    |
|       from small pool |       4    |       4    |       4    |       0    |
|---------------------------------------------------------------------------|
| Non-releasable allocs |      12    |      24    |   10498    |   10486    |
|       from large pool |       4    |      12    |    5096    |    5092    |
|       from small pool |       8    |      15    |    5402    |    5394    |
|---------------------------------------------------------------------------|
| Oversize allocations  |       0    |       0    |       0    |       0    |
|---------------------------------------------------------------------------|
| Oversize GPU segments |       0    |       0    |       0    |       0    |
|===========================================================================|

test_result:epoch_time:copy_time=0.2509
test_result:convert_time=0.0219
test_result:train_time=0.4087
test_result:epoch_time:train_total=0.4306
test_result:cache_percentage=0.1600
test_result:cache_hit_rate=1.0000
test_result:run_time=8.1491
